n_sigma=   3, theta=  0.3218, angle= 18.4349, twist boundary
4.0414
   1.5811388301    0.0000000000    0.0000000000
  -0.0000000000    1.5811388301    0.0000000000
   0.0000000000    0.0000000000    8.0000000000
80
Direct
   0.0000000000    0.0000000000    0.0000000000
   0.2000000000    0.4000000000    0.0000000000
   0.6000000000    0.2000000000    0.0000000000
   0.8000000000    0.6000000000    0.0000000000
   0.4000000000    0.8000000000    0.0000000000
   0.3000000000    0.1000000000    0.0625000000
   0.1000000000    0.7000000000    0.0625000000
   0.5000000000    0.5000000000    0.0625000000
   0.9000000000    0.3000000000    0.0625000000
   0.7000000000    0.9000000000    0.0625000000
   0.0000000000    0.0000000000    0.1250000000
   0.2000000000    0.4000000000    0.1250000000
   0.6000000000    0.2000000000    0.1250000000
   0.8000000000    0.6000000000    0.1250000000
   0.4000000000    0.8000000000    0.1250000000
   0.3000000000    0.1000000000    0.1875000000
   0.1000000000    0.7000000000    0.1875000000
   0.5000000000    0.5000000000    0.1875000000
   0.9000000000    0.3000000000    0.1875000000
   0.7000000000    0.9000000000    0.1875000000
   0.0000000000    0.0000000000    0.2500000000
   0.2000000000    0.4000000000    0.2500000000
   0.6000000000    0.2000000000    0.2500000000
   0.8000000000    0.6000000000    0.2500000000
   0.4000000000    0.8000000000    0.2500000000
   0.3000000000    0.1000000000    0.3125000000
   0.1000000000    0.7000000000    0.3125000000
   0.5000000000    0.5000000000    0.3125000000
   0.9000000000    0.3000000000    0.3125000000
   0.7000000000    0.9000000000    0.3125000000
   0.0000000000    0.0000000000    0.3750000000
   0.2000000000    0.4000000000    0.3750000000
   0.6000000000    0.2000000000    0.3750000000
   0.8000000000    0.6000000000    0.3750000000
   0.4000000000    0.8000000000    0.3750000000
   0.3000000000    0.1000000000    0.4375000000
   0.1000000000    0.7000000000    0.4375000000
   0.5000000000    0.5000000000    0.4375000000
   0.9000000000    0.3000000000    0.4375000000
   0.7000000000    0.9000000000    0.4375000000
   0.0000000000    0.0000000000    0.5000000000
   0.4000000000    0.2000000000    0.5000000000
   0.2000000000    0.6000000000    0.5000000000
   0.6000000000    0.8000000000    0.5000000000
   0.8000000000    0.4000000000    0.5000000000
   0.1000000000    0.3000000000    0.5625000000
   0.3000000000    0.9000000000    0.5625000000
   0.5000000000    0.5000000000    0.5625000000
   0.7000000000    0.1000000000    0.5625000000
   0.9000000000    0.7000000000    0.5625000000
   0.0000000000    0.0000000000    0.6250000000
   0.4000000000    0.2000000000    0.6250000000
   0.2000000000    0.6000000000    0.6250000000
   0.6000000000    0.8000000000    0.6250000000
   0.8000000000    0.4000000000    0.6250000000
   0.1000000000    0.3000000000    0.6875000000
   0.3000000000    0.9000000000    0.6875000000
   0.5000000000    0.5000000000    0.6875000000
   0.7000000000    0.1000000000    0.6875000000
   0.9000000000    0.7000000000    0.6875000000
   0.0000000000    0.0000000000    0.7500000000
   0.4000000000    0.2000000000    0.7500000000
   0.2000000000    0.6000000000    0.7500000000
   0.6000000000    0.8000000000    0.7500000000
   0.8000000000    0.4000000000    0.7500000000
   0.1000000000    0.3000000000    0.8125000000
   0.3000000000    0.9000000000    0.8125000000
   0.5000000000    0.5000000000    0.8125000000
   0.7000000000    0.1000000000    0.8125000000
   0.9000000000    0.7000000000    0.8125000000
   0.0000000000    0.0000000000    0.8750000000
   0.4000000000    0.2000000000    0.8750000000
   0.2000000000    0.6000000000    0.8750000000
   0.6000000000    0.8000000000    0.8750000000
   0.8000000000    0.4000000000    0.8750000000
   0.1000000000    0.3000000000    0.9375000000
   0.3000000000    0.9000000000    0.9375000000
   0.5000000000    0.5000000000    0.9375000000
   0.7000000000    0.1000000000    0.9375000000
   0.9000000000    0.7000000000    0.9375000000
