n_expand= 3 x  3 x  1, n_t= 5, mirrored,
   4.04140000000000     
     4.0792156799999999    0.0000000000000000    0.0000000000000000
     0.0000000000000000    2.5495098000000000    0.0000000000000000
     0.0000000000000000    0.0000000000000000    1.0000000000000000
   Al
    40
Direct
  0.4885084902530181  0.0093863328028547  0.0000000000000000
  0.5958586614242378  0.0434685565057293  0.5000000000000000
  0.3813889683180349  0.0431100742329917  0.5000000000000000
  0.5686232469035133  0.2367740922520483  0.0000000000000000
  0.4090896961831945  0.2373306072253101  0.0000000000000000
  0.4900167102325099  0.4139592478998111  0.5000000000000000
  0.4881938303301396  0.6165297362374034  0.0000000000000000
  0.4883803545217233  0.8196116896004426  0.5000000000000000
  0.7147465345532567  0.0752242589755028  0.0000000000000000
  0.2625174433910473  0.0745618494753657  0.0000000000000000
  0.6793471575558314  0.2739308430316285  0.5000000000000000
  0.2977252615618724  0.2729284705067414  0.5000000000000000
  0.8375491990628632  0.1097694132111116  0.5000000000000000
  0.1398400344032424  0.1088989260367441  0.5000000000000000
  0.7973643750825019  0.3040136448368145  0.0000000000000000
  0.1787823292580484  0.3024363166128197  0.0000000000000000
  0.6399111432456621  0.4678365190512750  0.0000000000000000
  0.3369282740956550  0.4670628587115644  0.0000000000000000
  0.6161025735575905  0.6467760459820653  0.5000000000000000
  0.3607784968402683  0.6462925124280119  0.5000000000000000
  0.7623114141175336  0.5026881160121661  0.5000000000000000
  0.2144874748601922  0.5012903451839534  0.5000000000000000
  0.7468195761358487  0.6930623470088264  0.0000000000000000
  0.2303146387997543  0.6919123945799299  0.0000000000000000
  0.6111726351057243  0.8387729678815177  0.0000000000000000
  0.3657467371574299  0.8386152260518713  0.0000000000000000
  0.7305748082421317  0.8850791126185555  0.5000000000000000
  0.2467035554853325  0.8839816912383327  0.5000000000000000
  0.9852729011198278  0.1631735704529689  0.0000000000000000
  0.9081248395368462  0.3411514665822182  0.5000000000000000
  0.0677879232759508  0.3391487033200207  0.5000000000000000
  0.8811524632837688  0.5343412365460267  0.0000000000000000
  0.0957948566362319  0.5328726656771892  0.0000000000000000
  0.8660798748073120  0.7390783832776293  0.5000000000000000
  0.1113384289198578  0.7375092704185064  0.5000000000000000
  0.9883984424850425  0.5677291447899506  0.5000000000000000
  0.9885685296063116  0.7574177858819837  0.0000000000000000
  0.8610104194715973  0.9307011606975806  0.0000000000000000
  0.1162028770139258  0.9296810973238152  0.0000000000000000
  0.9889463551651545  0.9603530328407217  0.5000000000000000
 
  0.00000000E+00  0.00000000E+00  0.00000000E+00
  0.00000000E+00  0.00000000E+00  0.00000000E+00
  0.00000000E+00  0.00000000E+00  0.00000000E+00
  0.00000000E+00  0.00000000E+00  0.00000000E+00
  0.00000000E+00  0.00000000E+00  0.00000000E+00
  0.00000000E+00  0.00000000E+00  0.00000000E+00
  0.00000000E+00  0.00000000E+00  0.00000000E+00
  0.00000000E+00  0.00000000E+00  0.00000000E+00
  0.00000000E+00  0.00000000E+00  0.00000000E+00
  0.00000000E+00  0.00000000E+00  0.00000000E+00
  0.00000000E+00  0.00000000E+00  0.00000000E+00
  0.00000000E+00  0.00000000E+00  0.00000000E+00
  0.00000000E+00  0.00000000E+00  0.00000000E+00
  0.00000000E+00  0.00000000E+00  0.00000000E+00
  0.00000000E+00  0.00000000E+00  0.00000000E+00
  0.00000000E+00  0.00000000E+00  0.00000000E+00
  0.00000000E+00  0.00000000E+00  0.00000000E+00
  0.00000000E+00  0.00000000E+00  0.00000000E+00
  0.00000000E+00  0.00000000E+00  0.00000000E+00
  0.00000000E+00  0.00000000E+00  0.00000000E+00
  0.00000000E+00  0.00000000E+00  0.00000000E+00
  0.00000000E+00  0.00000000E+00  0.00000000E+00
  0.00000000E+00  0.00000000E+00  0.00000000E+00
  0.00000000E+00  0.00000000E+00  0.00000000E+00
  0.00000000E+00  0.00000000E+00  0.00000000E+00
  0.00000000E+00  0.00000000E+00  0.00000000E+00
  0.00000000E+00  0.00000000E+00  0.00000000E+00
  0.00000000E+00  0.00000000E+00  0.00000000E+00
  0.00000000E+00  0.00000000E+00  0.00000000E+00
  0.00000000E+00  0.00000000E+00  0.00000000E+00
  0.00000000E+00  0.00000000E+00  0.00000000E+00
  0.00000000E+00  0.00000000E+00  0.00000000E+00
  0.00000000E+00  0.00000000E+00  0.00000000E+00
  0.00000000E+00  0.00000000E+00  0.00000000E+00
  0.00000000E+00  0.00000000E+00  0.00000000E+00
  0.00000000E+00  0.00000000E+00  0.00000000E+00
  0.00000000E+00  0.00000000E+00  0.00000000E+00
  0.00000000E+00  0.00000000E+00  0.00000000E+00
  0.00000000E+00  0.00000000E+00  0.00000000E+00
  0.00000000E+00  0.00000000E+00  0.00000000E+00
