(Al) Source:.POSCAR_0;Expand:2,2,1;Shape
   1.00000000000000     
    11.2041235677070201    0.0000000000000000    0.0000000000000000
     0.0000000000000000    6.2622141785420000    0.0000000000000000
     0.0000000000000000    0.0000000000000000    4.0414000000000003
     Al
  16
Selective dynamics
Direct
  0.6501050836367028  0.1033990736538755  0.5000000000000000   T   T   T
  0.6109372092533079  0.4093294379581565  0.0000000000000000   T   T   T
  0.9948504742032824  0.2984597611416007  0.5000000000000000   T   T   T
  0.8362361324214120  0.2061198037869616  0.0000000000000000   T   T   T
  0.7741052888954769  0.5057859366473991  0.5000000000000000   T   T   T
  0.9885858043378732  0.6258437299774755  0.0000000000000000   T   T   T
  0.7148077932241321  0.7998646082642935  0.0000000000000000   T   T   T
  0.8748166584278181  0.9004506892104089  0.5000000000000000   T   T   T
  0.4948504742032824  0.0015402388583965  0.0000000000000000   T   T   T
  0.3362361324214120  0.0938801962130427  0.5000000000000000   T   T   T
  0.3748166584278181  0.3995493107895882  0.0000000000000000   T   T   T
  0.4885858043378732  0.6741562700225288  0.5000000000000000   T   T   T
  0.1501050836367028  0.1966009263461288  0.0000000000000000   T   T   T
  0.2148077932241321  0.5001353917357036  0.5000000000000000   T   T   T
  0.2741052888954769  0.7942140633525980  0.0000000000000000   T   T   T
  0.1109372092533079  0.8906705620418407  0.5000000000000000   T   T   T