n_expand= 3 x  3 x  1, n_t= 5, mirrored,
   4.04140000000000     
     4.3341666600000002    0.0000000000000000    0.0000000000000000
     0.0000000000000000    2.3455490160000001    0.0000000000000000
     0.0000000000000000    0.0000000000000000    1.0000000000000000
   Al
    40
Direct
  0.4650622744120341  0.9767659223022207  0.0000000000000000
  0.5816134587905708  0.0259179015477002  0.5000000000000000
  0.4302228424705206  0.1530602339864657  0.5000000000000000
  0.5583295900685101  0.2149400863526694  0.0000000000000000
  0.4134768992808873  0.3481187657221554  0.0000000000000000
  0.5301281732622485  0.3995831552872460  0.5000000000000000
  0.5104005095640218  0.5930615383196383  0.0000000000000000
  0.4848269316996223  0.7880476107072099  0.5000000000000000
  0.7031882334076869  0.0734200281797257  0.0000000000000000
  0.3146821040793668  0.0860394128484145  0.0000000000000000
  0.6781167654453100  0.2631425774179377  0.5000000000000000
  0.2934437183493230  0.3069092676389786  0.5000000000000000
  0.8236334762901691  0.1196148486386335  0.5000000000000000
  0.1954919846842031  0.0742616826901781  0.5000000000000000
  0.7992860815600125  0.3107844735729728  0.0000000000000000
  0.1786170846820383  0.2755412911750597  0.0000000000000000
  0.6535788565290588  0.4527753797711540  0.0000000000000000
  0.2781224170923409  0.5026228094866667  0.0000000000000000
  0.6276679840553641  0.6419604463222370  0.5000000000000000
  0.3903550852091513  0.5505337772657981  0.5000000000000000
  0.7728270841211611  0.5021608079471847  0.5000000000000000
  0.1606279801664670  0.5161243255904751  0.5000000000000000
  0.7488777405419569  0.6932979568622102  0.0000000000000000
  0.2054503756925214  0.7458150936963577  0.0000000000000000
  0.6066889770863497  0.8343902778356878  0.0000000000000000
  0.3702877053607807  0.7461171399966773  0.0000000000000000
  0.7248484917228026  0.8832811581744693  0.5000000000000000
  0.2969342177815051  0.8702242978476775  0.5000000000000000
  0.9464002200683126  0.1708346593025709  0.0000000000000000
  0.9175238185989372  0.3581850801028708  0.5000000000000000
  0.0613310521755608  0.2259140633153365  0.5000000000000000
  0.8922634031668579  0.5491656587625258  0.0000000000000000
  0.0439054041784104  0.4220278290327073  0.0000000000000000
  0.8673291298766017  0.7414415528076077  0.5000000000000000
  0.1105218912215165  0.8160478954287100  0.5000000000000000
  0.0076338933970490  0.5968381594891596  0.5000000000000000
  0.9909809159757970  0.7836381368378724  0.0000000000000000
  0.8479892418335737  0.9312890410350079  0.0000000000000000
  0.0874951224736193  0.0169784464991380  0.0000000000000000
  0.9683003956277787  0.9775889242026992  0.5000000000000000
 
  0.00000000E+00  0.00000000E+00  0.00000000E+00
  0.00000000E+00  0.00000000E+00  0.00000000E+00
  0.00000000E+00  0.00000000E+00  0.00000000E+00
  0.00000000E+00  0.00000000E+00  0.00000000E+00
  0.00000000E+00  0.00000000E+00  0.00000000E+00
  0.00000000E+00  0.00000000E+00  0.00000000E+00
  0.00000000E+00  0.00000000E+00  0.00000000E+00
  0.00000000E+00  0.00000000E+00  0.00000000E+00
  0.00000000E+00  0.00000000E+00  0.00000000E+00
  0.00000000E+00  0.00000000E+00  0.00000000E+00
  0.00000000E+00  0.00000000E+00  0.00000000E+00
  0.00000000E+00  0.00000000E+00  0.00000000E+00
  0.00000000E+00  0.00000000E+00  0.00000000E+00
  0.00000000E+00  0.00000000E+00  0.00000000E+00
  0.00000000E+00  0.00000000E+00  0.00000000E+00
  0.00000000E+00  0.00000000E+00  0.00000000E+00
  0.00000000E+00  0.00000000E+00  0.00000000E+00
  0.00000000E+00  0.00000000E+00  0.00000000E+00
  0.00000000E+00  0.00000000E+00  0.00000000E+00
  0.00000000E+00  0.00000000E+00  0.00000000E+00
  0.00000000E+00  0.00000000E+00  0.00000000E+00
  0.00000000E+00  0.00000000E+00  0.00000000E+00
  0.00000000E+00  0.00000000E+00  0.00000000E+00
  0.00000000E+00  0.00000000E+00  0.00000000E+00
  0.00000000E+00  0.00000000E+00  0.00000000E+00
  0.00000000E+00  0.00000000E+00  0.00000000E+00
  0.00000000E+00  0.00000000E+00  0.00000000E+00
  0.00000000E+00  0.00000000E+00  0.00000000E+00
  0.00000000E+00  0.00000000E+00  0.00000000E+00
  0.00000000E+00  0.00000000E+00  0.00000000E+00
  0.00000000E+00  0.00000000E+00  0.00000000E+00
  0.00000000E+00  0.00000000E+00  0.00000000E+00
  0.00000000E+00  0.00000000E+00  0.00000000E+00
  0.00000000E+00  0.00000000E+00  0.00000000E+00
  0.00000000E+00  0.00000000E+00  0.00000000E+00
  0.00000000E+00  0.00000000E+00  0.00000000E+00
  0.00000000E+00  0.00000000E+00  0.00000000E+00
  0.00000000E+00  0.00000000E+00  0.00000000E+00
  0.00000000E+00  0.00000000E+00  0.00000000E+00
  0.00000000E+00  0.00000000E+00  0.00000000E+00
